300
50 50
1 35 48
2 35 384
3 35 345
4 35 659
5 35 143
6 35 260
7 35 354
8 35 169
9 35 807
10 35 125
11 34 124
12 34 999
13 34 688
14 34 329
15 34 134
16 34 179
17 34 655
18 34 171
19 34 12
20 34 422
21 34 393
22 34 209
23 34 377
24 34 676
25 34 859
26 33 78
27 33 372
28 33 238
29 33 524
30 33 68
31 33 245
32 33 11
33 33 748
34 33 560
35 33 680
36 32 27
37 32 843
38 32 215
39 32 947
40 32 191
41 32 817
42 32 599
43 32 815
44 32 317
45 32 603
46 32 338
47 32 958
48 32 211
49 31 177
50 31 607
51 31 773
52 31 647
53 31 121
54 31 31
55 31 781
56 31 136
57 31 870
58 31 691
59 31 618
60 31 76
61 31 705
62 31 246
63 31 892
64 31 154
65 31 655
66 31 371
67 30 197
68 30 580
69 30 357
70 30 966
71 30 296
72 30 519
73 30 70
74 30 196
75 29 915
76 29 38
77 29 166
78 29 425
79 29 843
80 29 437
81 29 279
82 29 187
83 29 133
84 29 515
85 29 384
86 29 20
87 28 363
88 28 189
89 28 266
90 28 493
91 28 7
92 28 708
93 28 628
94 28 681
95 28 284
96 28 617
97 28 780
98 28 700
99 27 457
100 27 942
101 27 916
102 27 827
103 27 849
104 27 357
105 27 368
106 27 347
107 27 937
108 27 737
109 27 251
110 27 598
111 27 674
112 26 753
113 26 81
114 26 488
115 26 29
116 26 248
117 26 133
118 26 958
119 26 943
120 26 861
121 26 267
122 26 237
123 26 830
124 25 292
125 25 534
126 25 324
127 25 859
128 25 647
129 25 866
130 25 660
131 25 7
132 25 553
133 25 130
134 25 435
135 25 40
136 25 277
137 25 141
138 24 17
139 24 490
140 24 412
141 24 8
142 24 885
143 24 583
144 24 541
145 24 28
146 24 579
147 24 301
148 24 872
149 24 571
150 23 841
151 23 439
152 23 448
153 23 997
154 23 200
155 23 216
156 23 120
157 23 736
158 23 859
159 23 812
160 23 804
161 23 525
162 22 488
163 22 519
164 22 532
165 22 61
166 22 531
167 22 771
168 22 498
169 22 161
170 22 865
171 21 240
172 21 841
173 21 404
174 21 963
175 21 959
176 20 961
177 20 869
178 20 258
179 20 982
180 20 739
181 20 235
182 20 814
183 20 813
184 20 53
185 20 473
186 20 471
187 19 572
188 19 614
189 19 331
190 19 833
191 19 70
192 19 207
193 19 30
194 19 538
195 19 624
196 19 79
197 19 150
198 19 602
199 19 698
200 18 964
201 18 992
202 18 235
203 18 332
204 18 553
205 18 576
206 18 344
207 18 157
208 18 993
209 18 993
210 18 284
211 18 233
212 18 851
213 17 210
214 17 837
215 17 448
216 17 378
217 17 227
218 17 401
219 17 895
220 17 886
221 16 593
222 16 736
223 16 676
224 16 627
225 16 189
226 16 235
227 16 951
228 16 827
229 16 43
230 16 192
231 16 736
232 16 387
233 16 95
234 16 424
235 15 113
236 15 748
237 15 878
238 15 166
239 15 729
240 15 16
241 15 800
242 15 131
243 15 2
244 15 515
245 15 382
246 15 440
247 15 632
248 15 195
249 15 265
250 15 735
251 14 905
252 14 531
253 14 963
254 14 392
255 14 891
256 13 283
257 13 508
258 13 196
259 13 297
260 13 98
261 13 694
262 13 856
263 13 11
264 12 287
265 12 540
266 12 230
267 12 976
268 12 692
269 12 736
270 12 893
271 12 681
272 12 581
273 12 222
274 12 922
275 12 494
276 12 734
277 12 742
278 12 718
279 12 953
280 12 622
281 12 400
282 11 640
283 11 745
284 11 331
285 11 730
286 11 196
287 11 808
288 11 455
289 11 689
290 10 814
291 10 446
292 10 899
293 10 469
294 10 161
295 10 862
296 10 457
297 10 532
298 10 242
299 10 118
300 10 586
